n=30;
m=60;
ciudades=[|13, 3
|19, 3
|23, 6
|14, 27
|27, 4
|29, 14
|13, 2
|15, 27
|4, 10
|28, 21
|4, 9
|2, 24
|29, 10
|10, 3
|9, 23
|19, 7
|11, 29
|10, 24
|25, 18
|5, 0
|18, 5
|7, 22
|24, 29
|1, 7
|13, 28
|30, 10
|29, 13
|25, 5
|3, 30
|21, 24
|6, 22
|24, 20
|19, 24
|5, 4
|29, 9
|4, 3
|24, 4
|19, 18
|5, 14
|26, 24
|20, 12
|14, 4
|16, 3
|9, 30
|3, 21
|4, 21
|8, 22
|22, 1
|20, 26
|23, 7
|16, 5
|0, 14
|8, 4
|27, 28
|17, 26
|30, 28
|6, 30
|29, 7
|24, 2
|1, 22|];